[[43, 4, 6, 5, 15, 38, 40, 37, 24, 48, 25, 46, 44, 34, 35, 39, 36, 49, 22, 32, 45, 10, 9, 8], [41, 19, 3, 17, 18, 31, 21, 42, 7, 2, 30, 23, 20, 50, 16], [29, 26, 47, 14, 52, 13, 27, 28, 12, 11, 51, 33]]